p cnf 200 1110
-101 -2 0
-101 78 0
-101 -19 0
-101 6 0
-101 -1 0
-101 -94 0
-101 -20 0
-101 32 0
-101 -64 0
-101 -13 0
101 2 -78 19 -6 1 94 20 -32 64 13 0
-102 91 0
-102 -51 0
-102 9 0
-102 -53 0
-102 60 0
-102 39 0
-102 56 0
-102 -31 0
-102 75 0
-102 94 0
102 -91 51 -9 53 -60 -39 -56 31 -75 -94 0
-103 14 0
-103 55 0
-103 -32 0
-103 -57 0
-103 -59 0
-103 -36 0
-103 -66 0
-103 60 0
-103 22 0
-103 15 0
103 -14 -55 32 57 59 36 66 -60 -22 -15 0
-104 -58 0
-104 29 0
-104 85 0
-104 64 0
-104 78 0
-104 45 0
-104 -24 0
-104 2 0
-104 -16 0
-104 87 0
104 58 -29 -85 -64 -78 -45 24 -2 16 -87 0
-105 -81 0
-105 -65 0
-105 58 0
-105 54 0
-105 51 0
-105 -31 0
-105 -29 0
-105 -20 0
-105 -60 0
-105 46 0
105 81 65 -58 -54 -51 31 29 20 60 -46 0
-106 12 0
-106 -39 0
-106 -24 0
-106 -74 0
-106 -28 0
-106 93 0
-106 -76 0
-106 33 0
-106 3 0
-106 -13 0
106 -12 39 24 74 28 -93 76 -33 -3 13 0
-107 34 0
-107 24 0
-107 -66 0
-107 -69 0
-107 50 0
-107 -20 0
-107 -76 0
-107 -60 0
-107 -32 0
-107 71 0
107 -34 -24 66 69 -50 20 76 60 32 -71 0
-108 55 0
-108 -95 0
-108 30 0
-108 3 0
-108 100 0
-108 -97 0
-108 -64 0
-108 4 0
-108 -73 0
-108 36 0
108 -55 95 -30 -3 -100 97 64 -4 73 -36 0
-109 -72 0
-109 -55 0
-109 -16 0
-109 95 0
-109 14 0
-109 46 0
-109 -6 0
-109 56 0
-109 2 0
-109 27 0
109 72 55 16 -95 -14 -46 6 -56 -2 -27 0
-110 22 0
-110 21 0
-110 -66 0
-110 -91 0
-110 65 0
-110 13 0
-110 31 0
-110 -98 0
-110 -57 0
-110 -10 0
110 -22 -21 66 91 -65 -13 -31 98 57 10 0
101 102 103 104 105 106 107 108 109 110 0
-111 -69 0
-111 20 0
-111 58 0
-111 -22 0
-111 3 0
-111 -82 0
-111 54 0
-111 -97 0
-111 -32 0
-111 -14 0
111 69 -20 -58 22 -3 82 -54 97 32 14 0
-112 17 0
-112 46 0
-112 1 0
-112 25 0
-112 -71 0
-112 82 0
-112 23 0
-112 -85 0
-112 48 0
-112 39 0
112 -17 -46 -1 -25 71 -82 -23 85 -48 -39 0
-113 -95 0
-113 -6 0
-113 -47 0
-113 84 0
-113 30 0
-113 35 0
-113 48 0
-113 19 0
-113 31 0
-113 -72 0
113 95 6 47 -84 -30 -35 -48 -19 -31 72 0
-114 20 0
-114 -94 0
-114 38 0
-114 23 0
-114 -49 0
-114 44 0
-114 68 0
-114 92 0
-114 -48 0
-114 -90 0
114 -20 94 -38 -23 49 -44 -68 -92 48 90 0
-115 34 0
-115 62 0
-115 -24 0
-115 28 0
-115 73 0
-115 -66 0
-115 38 0
-115 64 0
-115 44 0
-115 100 0
115 -34 -62 24 -28 -73 66 -38 -64 -44 -100 0
-116 76 0
-116 39 0
-116 87 0
-116 -59 0
-116 92 0
-116 -29 0
-116 60 0
-116 -28 0
-116 20 0
-116 99 0
116 -76 -39 -87 59 -92 29 -60 28 -20 -99 0
-117 21 0
-117 47 0
-117 -82 0
-117 -3 0
-117 -7 0
-117 55 0
-117 -83 0
-117 34 0
-117 31 0
-117 100 0
117 -21 -47 82 3 7 -55 83 -34 -31 -100 0
-118 -64 0
-118 -35 0
-118 -4 0
-118 32 0
-118 -38 0
-118 -66 0
-118 -97 0
-118 12 0
-118 -59 0
-118 65 0
118 64 35 4 -32 38 66 97 -12 59 -65 0
-119 -89 0
-119 90 0
-119 -92 0
-119 91 0
-119 8 0
-119 58 0
-119 -88 0
-119 -25 0
-119 -30 0
-119 22 0
119 89 -90 92 -91 -8 -58 88 25 30 -22 0
-120 3 0
-120 -26 0
-120 8 0
-120 -84 0
-120 -66 0
-120 25 0
-120 -16 0
-120 37 0
-120 -39 0
-120 -15 0
120 -3 26 -8 84 66 -25 16 -37 39 15 0
111 112 113 114 115 116 117 118 119 120 0
-121 -6 0
-121 88 0
-121 -24 0
-121 -77 0
-121 -75 0
-121 -45 0
-121 15 0
-121 13 0
-121 -85 0
-121 -23 0
121 6 -88 24 77 75 45 -15 -13 85 23 0
-122 80 0
-122 -79 0
-122 -69 0
-122 -35 0
-122 -94 0
-122 8 0
-122 -43 0
-122 75 0
-122 -23 0
-122 -100 0
122 -80 79 69 35 94 -8 43 -75 23 100 0
-123 50 0
-123 13 0
-123 28 0
-123 -71 0
-123 -41 0
-123 21 0
-123 43 0
-123 29 0
-123 30 0
-123 97 0
123 -50 -13 -28 71 41 -21 -43 -29 -30 -97 0
-124 -74 0
-124 -71 0
-124 96 0
-124 22 0
-124 -99 0
-124 53 0
-124 -2 0
-124 66 0
-124 39 0
-124 28 0
124 74 71 -96 -22 99 -53 2 -66 -39 -28 0
-125 98 0
-125 45 0
-125 -17 0
-125 -11 0
-125 -9 0
-125 -69 0
-125 62 0
-125 95 0
-125 23 0
-125 -60 0
125 -98 -45 17 11 9 69 -62 -95 -23 60 0
-126 52 0
-126 -49 0
-126 65 0
-126 94 0
-126 -26 0
-126 47 0
-126 -89 0
-126 18 0
-126 -19 0
-126 73 0
126 -52 49 -65 -94 26 -47 89 -18 19 -73 0
-127 -66 0
-127 44 0
-127 -48 0
-127 64 0
-127 62 0
-127 -29 0
-127 -80 0
-127 82 0
-127 -53 0
-127 -20 0
127 66 -44 48 -64 -62 29 80 -82 53 20 0
-128 67 0
-128 58 0
-128 25 0
-128 8 0
-128 33 0
-128 -50 0
-128 -73 0
-128 -9 0
-128 97 0
-128 -81 0
128 -67 -58 -25 -8 -33 50 73 9 -97 81 0
-129 48 0
-129 34 0
-129 -21 0
-129 -9 0
-129 69 0
-129 -89 0
-129 94 0
-129 32 0
-129 50 0
-129 -4 0
129 -48 -34 21 9 -69 89 -94 -32 -50 4 0
-130 70 0
-130 36 0
-130 46 0
-130 8 0
-130 -40 0
-130 76 0
-130 89 0
-130 74 0
-130 -43 0
-130 -30 0
130 -70 -36 -46 -8 40 -76 -89 -74 43 30 0
121 122 123 124 125 126 127 128 129 130 0
-131 31 0
-131 -94 0
-131 -83 0
-131 93 0
-131 -29 0
-131 -61 0
-131 18 0
-131 -67 0
-131 78 0
-131 48 0
131 -31 94 83 -93 29 61 -18 67 -78 -48 0
-132 54 0
-132 49 0
-132 -58 0
-132 10 0
-132 -77 0
-132 20 0
-132 90 0
-132 -84 0
-132 -73 0
-132 -89 0
132 -54 -49 58 -10 77 -20 -90 84 73 89 0
-133 79 0
-133 -93 0
-133 -54 0
-133 -28 0
-133 -73 0
-133 2 0
-133 -33 0
-133 20 0
-133 38 0
-133 -29 0
133 -79 93 54 28 73 -2 33 -20 -38 29 0
-134 -89 0
-134 -27 0
-134 -38 0
-134 -93 0
-134 73 0
-134 -4 0
-134 50 0
-134 92 0
-134 87 0
-134 -16 0
134 89 27 38 93 -73 4 -50 -92 -87 16 0
-135 66 0
-135 13 0
-135 -64 0
-135 -8 0
-135 -5 0
-135 -23 0
-135 -98 0
-135 7 0
-135 90 0
-135 -40 0
135 -66 -13 64 8 5 23 98 -7 -90 40 0
-136 -36 0
-136 -38 0
-136 -93 0
-136 35 0
-136 -14 0
-136 -49 0
-136 46 0
-136 -23 0
-136 8 0
-136 96 0
136 36 38 93 -35 14 49 -46 23 -8 -96 0
-137 -91 0
-137 -17 0
-137 -81 0
-137 1 0
-137 -34 0
-137 -15 0
-137 -26 0
-137 10 0
-137 -75 0
-137 40 0
137 91 17 81 -1 34 15 26 -10 75 -40 0
-138 54 0
-138 -50 0
-138 95 0
-138 -68 0
-138 -72 0
-138 34 0
-138 -32 0
-138 58 0
-138 90 0
-138 -45 0
138 -54 50 -95 68 72 -34 32 -58 -90 45 0
-139 -50 0
-139 42 0
-139 74 0
-139 -30 0
-139 -65 0
-139 2 0
-139 -13 0
-139 18 0
-139 -59 0
-139 -95 0
139 50 -42 -74 30 65 -2 13 -18 59 95 0
-140 -89 0
-140 -37 0
-140 -56 0
-140 -43 0
-140 -57 0
-140 -55 0
-140 -70 0
-140 29 0
-140 -65 0
-140 28 0
140 89 37 56 43 57 55 70 -29 65 -28 0
131 132 133 134 135 136 137 138 139 140 0
-141 84 0
-141 -32 0
-141 -29 0
-141 92 0
-141 25 0
-141 100 0
-141 4 0
-141 45 0
-141 64 0
-141 -79 0
141 -84 32 29 -92 -25 -100 -4 -45 -64 79 0
-142 -83 0
-142 -40 0
-142 77 0
-142 -6 0
-142 28 0
-142 22 0
-142 54 0
-142 37 0
-142 49 0
-142 33 0
142 83 40 -77 6 -28 -22 -54 -37 -49 -33 0
-143 59 0
-143 -94 0
-143 47 0
-143 89 0
-143 -88 0
-143 30 0
-143 -81 0
-143 3 0
-143 -51 0
-143 63 0
143 -59 94 -47 -89 88 -30 81 -3 51 -63 0
-144 92 0
-144 1 0
-144 65 0
-144 62 0
-144 -27 0
-144 -70 0
-144 78 0
-144 56 0
-144 90 0
-144 -100 0
144 -92 -1 -65 -62 27 70 -78 -56 -90 100 0
-145 19 0
-145 43 0
-145 -20 0
-145 -82 0
-145 76 0
-145 100 0
-145 -58 0
-145 38 0
-145 36 0
-145 44 0
145 -19 -43 20 82 -76 -100 58 -38 -36 -44 0
-146 -95 0
-146 -10 0
-146 -90 0
-146 -32 0
-146 56 0
-146 68 0
-146 63 0
-146 -71 0
-146 36 0
-146 91 0
146 95 10 90 32 -56 -68 -63 71 -36 -91 0
-147 32 0
-147 -16 0
-147 -90 0
-147 53 0
-147 95 0
-147 74 0
-147 91 0
-147 -5 0
-147 -99 0
-147 -30 0
147 -32 16 90 -53 -95 -74 -91 5 99 30 0
-148 90 0
-148 87 0
-148 38 0
-148 -77 0
-148 -60 0
-148 13 0
-148 -64 0
-148 15 0
-148 96 0
-148 -70 0
148 -90 -87 -38 77 60 -13 64 -15 -96 70 0
-149 -22 0
-149 -1 0
-149 53 0
-149 86 0
-149 -49 0
-149 72 0
-149 8 0
-149 -47 0
-149 51 0
-149 37 0
149 22 1 -53 -86 49 -72 -8 47 -51 -37 0
-150 28 0
-150 31 0
-150 -38 0
-150 -78 0
-150 95 0
-150 -5 0
-150 -46 0
-150 24 0
-150 17 0
-150 -55 0
150 -28 -31 38 78 -95 5 46 -24 -17 55 0
141 142 143 144 145 146 147 148 149 150 0
-151 20 0
-151 79 0
-151 51 0
-151 99 0
-151 -77 0
-151 -75 0
-151 7 0
-151 5 0
-151 3 0
-151 -57 0
151 -20 -79 -51 -99 77 75 -7 -5 -3 57 0
-152 -37 0
-152 97 0
-152 -55 0
-152 -20 0
-152 92 0
-152 56 0
-152 17 0
-152 100 0
-152 16 0
-152 -4 0
152 37 -97 55 20 -92 -56 -17 -100 -16 4 0
-153 55 0
-153 4 0
-153 -6 0
-153 28 0
-153 64 0
-153 -83 0
-153 8 0
-153 -42 0
-153 -76 0
-153 81 0
153 -55 -4 6 -28 -64 83 -8 42 76 -81 0
-154 -23 0
-154 37 0
-154 80 0
-154 -8 0
-154 -75 0
-154 -30 0
-154 44 0
-154 -45 0
-154 63 0
-154 -97 0
154 23 -37 -80 8 75 30 -44 45 -63 97 0
-155 -51 0
-155 15 0
-155 47 0
-155 43 0
-155 79 0
-155 -56 0
-155 91 0
-155 99 0
-155 3 0
-155 68 0
155 51 -15 -47 -43 -79 56 -91 -99 -3 -68 0
-156 19 0
-156 -79 0
-156 50 0
-156 -87 0
-156 59 0
-156 -90 0
-156 -63 0
-156 64 0
-156 -18 0
-156 32 0
156 -19 79 -50 87 -59 90 63 -64 18 -32 0
-157 72 0
-157 97 0
-157 -48 0
-157 78 0
-157 -45 0
-157 92 0
-157 93 0
-157 6 0
-157 -16 0
-157 9 0
157 -72 -97 48 -78 45 -92 -93 -6 16 -9 0
-158 77 0
-158 -81 0
-158 -72 0
-158 -38 0
-158 -24 0
-158 65 0
-158 -84 0
-158 85 0
-158 61 0
-158 31 0
158 -77 81 72 38 24 -65 84 -85 -61 -31 0
-159 62 0
-159 -74 0
-159 97 0
-159 -94 0
-159 -34 0
-159 -4 0
-159 -47 0
-159 -7 0
-159 -22 0
-159 -46 0
159 -62 74 -97 94 34 4 47 7 22 46 0
-160 -78 0
-160 90 0
-160 -25 0
-160 -31 0
-160 -95 0
-160 -20 0
-160 47 0
-160 -28 0
-160 26 0
-160 -96 0
160 78 -90 25 31 95 20 -47 28 -26 96 0
151 152 153 154 155 156 157 158 159 160 0
-161 69 0
-161 -83 0
-161 52 0
-161 -91 0
-161 -11 0
-161 100 0
-161 60 0
-161 25 0
-161 -39 0
-161 93 0
161 -69 83 -52 91 11 -100 -60 -25 39 -93 0
-162 39 0
-162 -59 0
-162 -21 0
-162 17 0
-162 -76 0
-162 40 0
-162 88 0
-162 36 0
-162 63 0
-162 6 0
162 -39 59 21 -17 76 -40 -88 -36 -63 -6 0
-163 -74 0
-163 -80 0
-163 -8 0
-163 53 0
-163 54 0
-163 79 0
-163 -55 0
-163 -37 0
-163 -23 0
-163 69 0
163 74 80 8 -53 -54 -79 55 37 23 -69 0
-164 -43 0
-164 70 0
-164 -40 0
-164 7 0
-164 -98 0
-164 -73 0
-164 91 0
-164 52 0
-164 17 0
-164 -10 0
164 43 -70 40 -7 98 73 -91 -52 -17 10 0
-165 -32 0
-165 76 0
-165 9 0
-165 -89 0
-165 24 0
-165 -1 0
-165 54 0
-165 -63 0
-165 -4 0
-165 83 0
165 32 -76 -9 89 -24 1 -54 63 4 -83 0
-166 56 0
-166 52 0
-166 -30 0
-166 57 0
-166 82 0
-166 32 0
-166 -68 0
-166 -72 0
-166 -12 0
-166 80 0
166 -56 -52 30 -57 -82 -32 68 72 12 -80 0
-167 -86 0
-167 -89 0
-167 -51 0
-167 -83 0
-167 -90 0
-167 97 0
-167 -70 0
-167 35 0
-167 79 0
-167 85 0
167 86 89 51 83 90 -97 70 -35 -79 -85 0
-168 43 0
-168 75 0
-168 -53 0
-168 32 0
-168 -34 0
-168 56 0
-168 -84 0
-168 -66 0
-168 -98 0
-168 -70 0
168 -43 -75 53 -32 34 -56 84 66 98 70 0
-169 -86 0
-169 88 0
-169 -87 0
-169 37 0
-169 23 0
-169 48 0
-169 -58 0
-169 -66 0
-169 -92 0
-169 67 0
169 86 -88 87 -37 -23 -48 58 66 92 -67 0
-170 -72 0
-170 -34 0
-170 82 0
-170 -27 0
-170 9 0
-170 39 0
-170 -18 0
-170 -20 0
-170 8 0
-170 -36 0
170 72 34 -82 27 -9 -39 18 20 -8 36 0
161 162 163 164 165 166 167 168 169 170 0
-171 73 0
-171 -13 0
-171 4 0
-171 -45 0
-171 -48 0
-171 68 0
-171 43 0
-171 57 0
-171 -52 0
-171 -5 0
171 -73 13 -4 45 48 -68 -43 -57 52 5 0
-172 -43 0
-172 8 0
-172 64 0
-172 -65 0
-172 -62 0
-172 -35 0
-172 -59 0
-172 74 0
-172 78 0
-172 -41 0
172 43 -8 -64 65 62 35 59 -74 -78 41 0
-173 12 0
-173 -48 0
-173 23 0
-173 -81 0
-173 97 0
-173 14 0
-173 42 0
-173 73 0
-173 -65 0
-173 -87 0
173 -12 48 -23 81 -97 -14 -42 -73 65 87 0
-174 13 0
-174 51 0
-174 -72 0
-174 11 0
-174 65 0
-174 -86 0
-174 -87 0
-174 64 0
-174 70 0
-174 16 0
174 -13 -51 72 -11 -65 86 87 -64 -70 -16 0
-175 58 0
-175 75 0
-175 10 0
-175 -6 0
-175 -52 0
-175 -42 0
-175 -100 0
-175 20 0
-175 70 0
-175 -97 0
175 -58 -75 -10 6 52 42 100 -20 -70 97 0
-176 -84 0
-176 -52 0
-176 53 0
-176 96 0
-176 2 0
-176 -40 0
-176 -83 0
-176 -72 0
-176 78 0
-176 -58 0
176 84 52 -53 -96 -2 40 83 72 -78 58 0
-177 -51 0
-177 67 0
-177 74 0
-177 -65 0
-177 71 0
-177 -82 0
-177 21 0
-177 -95 0
-177 23 0
-177 -6 0
177 51 -67 -74 65 -71 82 -21 95 -23 6 0
-178 51 0
-178 62 0
-178 -61 0
-178 26 0
-178 60 0
-178 -41 0
-178 64 0
-178 -17 0
-178 -56 0
-178 -57 0
178 -51 -62 61 -26 -60 41 -64 17 56 57 0
-179 -6 0
-179 14 0
-179 30 0
-179 2 0
-179 16 0
-179 -52 0
-179 54 0
-179 50 0
-179 -78 0
-179 -76 0
179 6 -14 -30 -2 -16 52 -54 -50 78 76 0
-180 -45 0
-180 -6 0
-180 -73 0
-180 -40 0
-180 -57 0
-180 62 0
-180 91 0
-180 -31 0
-180 23 0
-180 19 0
180 45 6 73 40 57 -62 -91 31 -23 -19 0
171 172 173 174 175 176 177 178 179 180 0
-181 -43 0
-181 58 0
-181 75 0
-181 93 0
-181 -39 0
-181 9 0
-181 -84 0
-181 69 0
-181 -65 0
-181 -74 0
181 43 -58 -75 -93 39 -9 84 -69 65 74 0
-182 -69 0
-182 -74 0
-182 61 0
-182 43 0
-182 64 0
-182 -62 0
-182 92 0
-182 93 0
-182 -4 0
-182 81 0
182 69 74 -61 -43 -64 62 -92 -93 4 -81 0
-183 -63 0
-183 32 0
-183 -93 0
-183 -34 0
-183 -31 0
-183 -51 0
-183 77 0
-183 -35 0
-183 -9 0
-183 54 0
183 63 -32 93 34 31 51 -77 35 9 -54 0
-184 -91 0
-184 31 0
-184 81 0
-184 4 0
-184 -80 0
-184 27 0
-184 56 0
-184 29 0
-184 -65 0
-184 8 0
184 91 -31 -81 -4 80 -27 -56 -29 65 -8 0
-185 40 0
-185 -34 0
-185 38 0
-185 -33 0
-185 64 0
-185 -97 0
-185 -15 0
-185 -39 0
-185 58 0
-185 -72 0
185 -40 34 -38 33 -64 97 15 39 -58 72 0
-186 71 0
-186 85 0
-186 -14 0
-186 -63 0
-186 34 0
-186 42 0
-186 -98 0
-186 84 0
-186 -32 0
-186 -31 0
186 -71 -85 14 63 -34 -42 98 -84 32 31 0
-187 -2 0
-187 -51 0
-187 -29 0
-187 84 0
-187 99 0
-187 -52 0
-187 -32 0
-187 50 0
-187 -69 0
-187 -70 0
187 2 51 29 -84 -99 52 32 -50 69 70 0
-188 -6 0
-188 79 0
-188 -35 0
-188 -16 0
-188 -14 0
-188 -43 0
-188 39 0
-188 41 0
-188 60 0
-188 -51 0
188 6 -79 35 16 14 43 -39 -41 -60 51 0
-189 -16 0
-189 77 0
-189 -44 0
-189 -9 0
-189 -94 0
-189 23 0
-189 -86 0
-189 -61 0
-189 -78 0
-189 -74 0
189 16 -77 44 9 94 -23 86 61 78 74 0
-190 25 0
-190 23 0
-190 40 0
-190 -14 0
-190 45 0
-190 -91 0
-190 -22 0
-190 -30 0
-190 -86 0
-190 44 0
190 -25 -23 -40 14 -45 91 22 30 86 -44 0
181 182 183 184 185 186 187 188 189 190 0
-191 81 0
-191 -51 0
-191 19 0
-191 94 0
-191 -36 0
-191 -80 0
-191 -84 0
-191 -15 0
-191 31 0
-191 -22 0
191 -81 51 -19 -94 36 80 84 15 -31 22 0
-192 -37 0
-192 38 0
-192 -19 0
-192 2 0
-192 -57 0
-192 61 0
-192 -20 0
-192 47 0
-192 -97 0
-192 -59 0
192 37 -38 19 -2 57 -61 20 -47 97 59 0
-193 71 0
-193 -32 0
-193 98 0
-193 -62 0
-193 69 0
-193 12 0
-193 -95 0
-193 1 0
-193 38 0
-193 96 0
193 -71 32 -98 62 -69 -12 95 -1 -38 -96 0
-194 21 0
-194 61 0
-194 29 0
-194 5 0
-194 59 0
-194 81 0
-194 8 0
-194 -16 0
-194 -1 0
-194 55 0
194 -21 -61 -29 -5 -59 -81 -8 16 1 -55 0
-195 18 0
-195 -31 0
-195 -79 0
-195 -87 0
-195 -51 0
-195 23 0
-195 -93 0
-195 12 0
-195 -68 0
-195 -78 0
195 -18 31 79 87 51 -23 93 -12 68 78 0
-196 -54 0
-196 -48 0
-196 -69 0
-196 -11 0
-196 63 0
-196 -2 0
-196 100 0
-196 -87 0
-196 34 0
-196 67 0
196 54 48 69 11 -63 2 -100 87 -34 -67 0
-197 97 0
-197 7 0
-197 21 0
-197 -60 0
-197 -29 0
-197 -89 0
-197 -14 0
-197 -67 0
-197 -61 0
-197 -70 0
197 -97 -7 -21 60 29 89 14 67 61 70 0
-198 30 0
-198 3 0
-198 -58 0
-198 42 0
-198 -88 0
-198 7 0
-198 80 0
-198 -57 0
-198 -76 0
-198 -51 0
198 -30 -3 58 -42 88 -7 -80 57 76 51 0
-199 85 0
-199 -6 0
-199 -14 0
-199 40 0
-199 -44 0
-199 56 0
-199 -82 0
-199 -90 0
-199 -52 0
-199 26 0
199 -85 6 14 -40 44 -56 82 90 52 -26 0
-200 -92 0
-200 -41 0
-200 -52 0
-200 17 0
-200 -63 0
-200 59 0
-200 -70 0
-200 58 0
-200 -39 0
-200 13 0
200 92 41 52 -17 63 -59 70 -58 39 -13 0
191 192 193 194 195 196 197 198 199 200 0
